c FILE /home/rafael/Documents/HappySet/MIHS/inputs/happygen/output/graph_scale_free_k20_p0.4_v100_20241127_083932.txt
c SOURCE This is a scale-free graph formed for the happy graph colouring problem.
c DESCRIPTION It was generated using the problem generator of Rhyd Lewis
c
c GRAPH STATS
c Seed                             = 1878582742
c Number of Nodes                  = 100
c Number of colours k              = 20
c Number of pre-assignments        = 40
c Number of links per new node     = 5
c Density                          = 0.0979798
c 
c The degrees of nodes 1 to 100, respectively, are as follows 
c [45, 35, 34, 27, 24, 24, 22, 22, 20, 19, 18, 17, 16, 16, 16, 15, 14, 14, 14, 14, 11, 11, 10, 10, 10, 10, 
c  10, 10, 10, 9, 9, 9, 9, 9, 8, 8, 8, 8, 8, 8, 8, 8, 7, 7, 7, 7, 7, 7, 7, 7, 7, 
c  7, 7, 7, 7, 7, 7, 7, 7, 7, 7, 7, 6, 6, 6, 6, 6, 6, 6, 6, 6, 6, 6, 6, 6, 5, 
c  5, 5, 5, 5, 5, 5, 5, 5, 5, 5, 5, 5, 5, 5, 5, 5, 5, 5, 5, 5, 5, 5, 5, 5] 
c  
p edge 100 485 20
e 1 2
e 1 3
e 1 4
e 1 5
e 1 7
e 1 9
e 1 10
e 1 11
e 1 13
e 1 14
e 1 16
e 1 18
e 1 19
e 1 20
e 1 21
e 1 22
e 1 25
e 1 26
e 1 29
e 1 31
e 1 32
e 1 35
e 1 36
e 1 39
e 1 44
e 1 46
e 1 49
e 1 59
e 1 60
e 1 61
e 1 62
e 1 65
e 1 67
e 1 69
e 1 70
e 1 73
e 1 76
e 1 80
e 1 87
e 1 91
e 1 92
e 1 94
e 1 95
e 1 96
e 1 99
e 2 3
e 2 5
e 2 6
e 2 7
e 2 9
e 2 10
e 2 11
e 2 12
e 2 13
e 2 14
e 2 16
e 2 19
e 2 20
e 2 21
e 2 26
e 2 32
e 2 33
e 2 40
e 2 41
e 2 42
e 2 47
e 2 49
e 2 55
e 2 61
e 2 64
e 2 71
e 2 76
e 2 77
e 2 79
e 2 80
e 2 81
e 2 83
e 2 85
e 2 91
e 3 4
e 3 5
e 3 6
e 3 7
e 3 8
e 3 9
e 3 10
e 3 11
e 3 13
e 3 14
e 3 16
e 3 17
e 3 21
e 3 24
e 3 27
e 3 37
e 3 40
e 3 42
e 3 43
e 3 44
e 3 48
e 3 49
e 3 51
e 3 54
e 3 58
e 3 59
e 3 68
e 3 70
e 3 77
e 3 84
e 3 85
e 3 93
e 4 5
e 4 7
e 4 8
e 4 10
e 4 11
e 4 14
e 4 15
e 4 20
e 4 21
e 4 23
e 4 28
e 4 30
e 4 33
e 4 47
e 4 48
e 4 55
e 4 64
e 4 72
e 4 78
e 4 82
e 4 83
e 4 87
e 4 88
e 4 89
e 4 95
e 5 6
e 5 8
e 5 9
e 5 10
e 5 11
e 5 13
e 5 17
e 5 21
e 5 23
e 5 39
e 5 40
e 5 45
e 5 46
e 5 48
e 5 53
e 5 54
e 5 58
e 5 78
e 5 81
e 5 99
e 6 9
e 6 10
e 6 12
e 6 17
e 6 18
e 6 22
e 6 24
e 6 28
e 6 29
e 6 34
e 6 37
e 6 39
e 6 40
e 6 42
e 6 43
e 6 67
e 6 68
e 6 69
e 6 73
e 6 74
e 6 82
e 7 8
e 7 11
e 7 12
e 7 15
e 7 18
e 7 19
e 7 22
e 7 25
e 7 34
e 7 42
e 7 43
e 7 46
e 7 47
e 7 53
e 7 75
e 7 79
e 7 83
e 7 93
e 8 9
e 8 15
e 8 23
e 8 27
e 8 35
e 8 36
e 8 39
e 8 43
e 8 62
e 8 63
e 8 64
e 8 66
e 8 68
e 8 77
e 8 84
e 8 92
e 8 97
e 8 100
e 9 11
e 9 13
e 9 14
e 9 18
e 9 24
e 9 25
e 9 36
e 9 44
e 9 68
e 9 70
e 9 76
e 9 83
e 9 93
e 9 98
e 10 11
e 10 15
e 10 26
e 10 33
e 10 36
e 10 55
e 10 57
e 10 60
e 10 62
e 10 67
e 10 69
e 10 79
e 10 85
e 11 16
e 11 17
e 11 23
e 11 24
e 11 26
e 11 30
e 11 38
e 11 45
e 11 78
e 11 87
e 12 13
e 12 19
e 12 28
e 12 35
e 12 39
e 12 41
e 12 45
e 12 46
e 12 50
e 12 52
e 12 58
e 12 63
e 12 80
e 12 87
e 13 16
e 13 18
e 13 30
e 13 36
e 13 49
e 13 50
e 13 59
e 13 65
e 13 71
e 13 90
e 14 15
e 14 28
e 14 51
e 14 53
e 14 56
e 14 63
e 14 67
e 14 81
e 14 88
e 14 94
e 14 97
e 15 27
e 15 31
e 15 35
e 15 37
e 15 44
e 15 46
e 15 50
e 15 54
e 15 56
e 15 63
e 15 86
e 16 17
e 16 23
e 16 25
e 16 34
e 16 41
e 16 60
e 16 66
e 16 69
e 16 83
e 16 90
e 17 22
e 17 27
e 17 34
e 17 37
e 17 47
e 17 54
e 17 65
e 17 86
e 17 88
e 18 19
e 18 22
e 18 30
e 18 35
e 18 51
e 18 60
e 18 63
e 18 65
e 18 89
e 19 22
e 19 24
e 19 25
e 19 37
e 19 41
e 19 43
e 19 45
e 19 94
e 19 97
e 20 22
e 20 24
e 20 32
e 20 38
e 20 50
e 20 51
e 20 53
e 20 57
e 20 61
e 20 75
e 20 96
e 21 30
e 21 33
e 21 47
e 21 52
e 21 69
e 21 76
e 22 48
e 22 53
e 22 64
e 22 94
e 23 31
e 23 77
e 23 90
e 23 91
e 23 93
e 24 26
e 24 50
e 24 75
e 24 80
e 25 40
e 25 52
e 25 70
e 25 78
e 25 86
e 26 32
e 26 44
e 26 45
e 26 88
e 26 98
e 27 28
e 27 30
e 27 38
e 27 58
e 27 79
e 27 93
e 28 31
e 28 51
e 28 70
e 28 79
e 28 99
e 29 30
e 29 32
e 29 33
e 29 43
e 29 56
e 29 73
e 29 95
e 29 97
e 30 65
e 30 99
e 31 32
e 31 36
e 31 55
e 31 80
e 31 100
e 32 57
e 32 82
e 32 96
e 33 49
e 33 66
e 33 82
e 33 89
e 34 68
e 34 71
e 34 84
e 34 90
e 34 100
e 35 38
e 35 61
e 35 73
e 36 48
e 36 64
e 37 38
e 37 87
e 37 89
e 38 59
e 38 60
e 38 98
e 39 72
e 39 74
e 39 90
e 40 41
e 40 59
e 40 68
e 41 74
e 41 82
e 41 95
e 42 58
e 42 61
e 42 72
e 42 81
e 43 56
e 44 52
e 44 86
e 45 74
e 45 91
e 46 76
e 46 92
e 47 72
e 47 77
e 48 66
e 48 78
e 49 52
e 49 57
e 50 55
e 50 57
e 51 84
e 51 98
e 52 71
e 52 92
e 53 54
e 53 56
e 54 62
e 54 75
e 55 73
e 55 99
e 56 88
e 56 98
e 57 71
e 57 96
e 58 67
e 58 92
e 59 84
e 59 95
e 60 85
e 60 94
e 61 72
e 61 85
e 62 69
e 62 89
e 62 96
e 63 67
e 64 100
e 65 66
e 66 75
e 70 81
e 71 86
e 72 91
e 73 74
e 74 100
e 75 97
n 16 1
n 17 1
n 18 11
n 24 15
n 31 15
n 33 3
n 34 1
n 38 8
n 39 5
n 40 18
n 43 8
n 45 19
n 48 10
n 52 16
n 53 8
n 56 8
n 62 10
n 63 11
n 67 11
n 70 9
n 72 5
n 73 7
n 76 18
n 77 4
n 78 10
n 79 14
n 80 15
n 81 9
n 82 3
n 84 1
n 85 2
n 86 1
n 87 13
n 92 16
n 94 17
n 95 20
n 96 10
n 97 6
n 98 8
n 99 12
